NAME : graph9
COMMENT : H Algorithm Solution by Oscar Riveros [http://twitter.com/maxtuno]
TYPE : TOUR
DIMENSION : 114
TOUR_SECTION
86
23
1
105
98
92
90
71
95
66
114
55
26
51
109
10
79
52
68
74
67
54
25
61
50
76
96
62
12
60
58
16
108
17
82
57
20
94
13
9
48
6
88
41
29
113
3
78
83
45
72
32
84
93
14
99
35
69
19
42
21
37
36
15
24
44
53
106
47
34
102
7
101
11
63
43
80
91
33
97
89
100
70
59
22
18
5
56
85
8
110
64
30
39
107
46
27
28
75
103
65
81
4
73
104
40
38
112
2
49
31
111
77
87
-1
EOF
